(declare-fun var0 () String)
(declare-fun var1 () String)
(declare-fun var2 () String)
(declare-fun var3 () String)
(declare-fun var4 () String)
(declare-fun var5 () String)
(declare-fun var6 () String)
(declare-fun var7 () String)
(declare-fun var8 () String)
(declare-fun var9 () String)
(declare-fun var10 () String)
(declare-fun var11 () String)
(declare-fun var12 () String)
(declare-fun var13 () String)
(declare-fun var14 () String)
(declare-fun var15 () String)
(declare-fun var16 () String)
(declare-fun var17 () String)
(declare-fun var18 () String)
(declare-fun var19 () String)
(declare-fun var20 () String)
(declare-fun var21 () String)
(declare-fun var22 () String)
(declare-fun var23 () String)
(declare-fun var24 () String)
(declare-fun var25 () String)
(declare-fun var26 () String)
(declare-fun var27 () String)
(declare-fun var28 () String)
(declare-fun var29 () String)
(declare-fun var30 () String)
(declare-fun var31 () String)
(declare-fun var32 () String)
(declare-fun var33 () String)
(declare-fun var34 () String)
(declare-fun var35 () String)
(declare-fun var36 () String)
(declare-fun var37 () String)
(declare-fun var38 () String)
(declare-fun var39 () String)
(declare-fun var40 () String)
(declare-fun var41 () String)
(declare-fun var42 () String)
(declare-fun var43 () String)
(declare-fun var44 () String)
(declare-fun var45 () String)
(declare-fun var46 () String)
(declare-fun var47 () String)
(declare-fun var48 () String)
(declare-fun var49 () String)
(declare-fun var50 () String)
(declare-fun var51 () String)
(declare-fun var52 () String)
(declare-fun var53 () String)
(declare-fun var54 () String)
(declare-fun var55 () String)
(declare-fun var56 () String)
(declare-fun var57 () String)
(declare-fun var58 () String)
(declare-fun var59 () String)
(declare-fun var60 () String)
(assert (= var0 (Concat var1 var2)))
(assert (= var2 (Concat var3 var4)))
(assert (= var4 (Concat var5 var6)))
(assert (= var6 (Concat var7 var8)))
(assert (= var8 (Concat var9 var10)))
(assert (= var10 (Concat var11 var12)))
(assert (= var12 (Concat var13 var14)))
(assert (= var14 (Concat var15 var16)))
(assert (= var16 (Concat var17 var18)))
(assert (= var18 (Concat var19 var20)))
(assert (= var20 (Concat var21 var22)))
(assert (= var22 (Concat var23 var24)))
(assert (= var24 (Concat var25 var26)))
(assert (= var26 (Concat var27 var28)))
(assert (= var28 (Concat var29 var30)))
(assert (= var30 (Concat var31 var32)))
(assert (= var32 (Concat var33 var34)))
(assert (= var34 (Concat var35 var36)))
(assert (= var36 (Concat var37 var38)))
(assert (= var38 (Concat var39 var40)))
(assert (= var40 (Concat var41 var42)))
(assert (= var42 (Concat var43 var44)))
(assert (= var44 (Concat var45 var46)))
(assert (= var46 (Concat var47 var48)))
(assert (= var48 (Concat var49 var50)))
(assert (= var50 (Concat var51 var52)))
(assert (= var52 (Concat var53 var54)))
(assert (= var54 (Concat var55 var56)))
(assert (= var56 (Concat var57 var58)))
(assert (= var58 (Concat var59 var60)))
(assert (= var0 "solution"))
(assert (= "G" (CharAt var4 662)))
(assert (= "|" (CharAt var4 402)))
(assert (= "v" (CharAt var60 786)))
(assert (= "(" (CharAt var29 132)))
(assert (= "+" (CharAt var12 51)))
(assert (= "2" (CharAt var32 868)))
(assert (= "[" (CharAt var42 405)))
(assert (= "!" (CharAt var2 70)))
(assert (= "8" (CharAt var26 542)))
(assert (= "A" (CharAt var5 890)))
(assert (= ":" (CharAt var16 840)))
(assert (= "b" (CharAt var39 207)))
(assert (= "W" (CharAt var30 343)))
(assert (= "y" (CharAt var57 713)))
(assert (= "#" (CharAt var55 352)))
(assert (= "e" (CharAt var8 525)))
(assert (= "I" (CharAt var19 609)))
(assert (= "m" (CharAt var28 887)))
(assert (= "Y" (CharAt var51 460)))
(assert (= "d" (CharAt var14 234)))
(assert (= "?" (CharAt var33 317)))
(assert (= "6" (CharAt var25 970)))
(assert (= "n" (CharAt var43 688)))
(assert (= "C" (CharAt var37 84)))
(assert (= "=" (CharAt var40 550)))
(assert (= "`" (CharAt var30 975)))
(assert (= "l" (CharAt var5 434)))
(assert (= "[" (CharAt var43 246)))
(assert (= "]" (CharAt var34 567)))
(assert (= "G" (CharAt var16 86)))
(assert (= "T" (CharAt var13 10)))
(assert (= "B" (CharAt var28 778)))
(assert (= "%" (CharAt var9 394)))
(assert (= "f" (CharAt var14 870)))
(assert (= "}" (CharAt var9 921)))
(assert (= "^" (CharAt var58 132)))
(assert (= "?" (CharAt var50 103)))
(assert (= "w" (CharAt var24 118)))
(assert (= "G" (CharAt var59 658)))
(assert (= "r" (CharAt var14 957)))
(assert (= "L" (CharAt var19 477)))
(assert (= "#" (CharAt var39 261)))
(assert (= "Y" (CharAt var24 722)))
(assert (= "L" (CharAt var11 960)))
(assert (= "~" (CharAt var56 537)))
(assert (= "L" (CharAt var56 723)))
(assert (= "." (CharAt var17 834)))
(assert (= "C" (CharAt var36 209)))
(assert (= "D" (CharAt var8 15)))
(assert (= "`" (CharAt var37 187)))
(assert (= "." (CharAt var4 36)))
(assert (= "T" (CharAt var3 21)))
(assert (= "L" (CharAt var10 166)))
(assert (= ">" (CharAt var27 850)))
(assert (= "n" (CharAt var42 576)))
(assert (= "X" (CharAt var9 106)))
(assert (= "Q" (CharAt var19 813)))
(assert (= "f" (CharAt var51 394)))
(assert (= "2" (CharAt var52 979)))
(assert (= "D" (CharAt var56 643)))
(assert (= "8" (CharAt var58 366)))
(assert (= ">" (CharAt var31 360)))
(assert (= "b" (CharAt var4 132)))
(assert (= "w" (CharAt var56 620)))
(assert (= "s" (CharAt var60 133)))
(assert (= "C" (CharAt var12 890)))
(assert (= "g" (CharAt var14 701)))
(assert (= ";" (CharAt var17 101)))
(assert (= "'" (CharAt var40 817)))
(assert (= "b" (CharAt var5 798)))
(assert (= "x" (CharAt var55 435)))
(assert (= "{" (CharAt var57 251)))
(assert (= "[" (CharAt var47 397)))
(assert (= "l" (CharAt var27 936)))
(assert (= "0" (CharAt var18 215)))
(assert (= "{" (CharAt var27 77)))
(assert (= "*" (CharAt var56 740)))
(assert (= "B" (CharAt var50 850)))
(assert (= "W" (CharAt var7 28)))
(assert (= "a" (CharAt var47 398)))
(assert (= "$" (CharAt var58 372)))
(assert (= "Q" (CharAt var28 480)))
(assert (= "\\" (CharAt var29 138)))
(assert (= "*" (CharAt var50 397)))
(assert (= "}" (CharAt var25 222)))
(assert (= "z" (CharAt var11 836)))
(assert (= "`" (CharAt var16 737)))
(assert (= "t" (CharAt var15 359)))
(assert (= "m" (CharAt var6 395)))
(assert (= "y" (CharAt var54 682)))
(assert (= "h" (CharAt var13 525)))
(assert (= "V" (CharAt var12 90)))
(assert (= "q" (CharAt var17 886)))
(assert (= "Q" (CharAt var24 461)))
(assert (= "Y" (CharAt var12 971)))
(assert (= "N" (CharAt var7 626)))
(assert (= "0" (CharAt var43 720)))
(assert (= "M" (CharAt var49 956)))
(assert (= "\\" (CharAt var5 204)))
(assert (= "W" (CharAt var13 253)))
(assert (= "j" (CharAt var36 134)))
(assert (= "M" (CharAt var31 325)))
(assert (= "{" (CharAt var0 559)))
(assert (= "P" (CharAt var57 695)))
(assert (= "P" (CharAt var23 643)))
(assert (= "x" (CharAt var10 149)))
(assert (= "G" (CharAt var47 462)))
(assert (= "m" (CharAt var43 163)))
(assert (= "&" (CharAt var18 374)))
(assert (= "F" (CharAt var35 762)))
(assert (= "g" (CharAt var55 681)))
(assert (= "@" (CharAt var31 910)))
(assert (= "6" (CharAt var13 268)))
(assert (= "c" (CharAt var53 441)))
(assert (= "2" (CharAt var27 968)))
(assert (= "#" (CharAt var50 236)))
(assert (= "e" (CharAt var23 183)))
(assert (= "S" (CharAt var21 538)))
(assert (= "b" (CharAt var56 146)))
(assert (= "p" (CharAt var6 213)))
(assert (= "S" (CharAt var49 661)))
(assert (= "&" (CharAt var57 99)))
(assert (= "8" (CharAt var32 903)))
(assert (= "K" (CharAt var10 158)))
(assert (= "c" (CharAt var3 827)))
(assert (= "y" (CharAt var12 665)))
(assert (= "+" (CharAt var18 568)))
(assert (= "Y" (CharAt var0 383)))
(assert (= "C" (CharAt var32 108)))
(assert (= "?" (CharAt var24 16)))
(assert (= "=" (CharAt var28 942)))
(assert (= "$" (CharAt var55 336)))
(assert (= "G" (CharAt var46 536)))
(assert (= "{" (CharAt var29 700)))
(assert (= "R" (CharAt var47 458)))
(assert (= "/" (CharAt var56 684)))
(assert (= "}" (CharAt var54 929)))
(assert (= "1" (CharAt var6 258)))
(assert (= "J" (CharAt var7 304)))
(assert (= "4" (CharAt var1 461)))
(assert (= "O" (CharAt var45 685)))
(assert (= "d" (CharAt var1 667)))
(assert (= "E" (CharAt var37 961)))
(assert (= "Q" (CharAt var8 678)))
(assert (= "=" (CharAt var50 512)))
(assert (= "h" (CharAt var1 583)))
(assert (= "\\" (CharAt var40 287)))
(assert (= "B" (CharAt var26 895)))
(assert (= "J" (CharAt var1 235)))
(assert (= "#" (CharAt var55 107)))
(assert (= "!" (CharAt var50 442)))
(assert (= "4" (CharAt var36 128)))
(assert (= "f" (CharAt var39 473)))
(assert (= "(" (CharAt var33 119)))
(assert (= "#" (CharAt var13 321)))
(assert (= "?" (CharAt var55 776)))
(assert (= "," (CharAt var24 287)))
(assert (= "W" (CharAt var22 141)))
(assert (= "j" (CharAt var23 827)))
(assert (= "o" (CharAt var36 274)))
(assert (= "T" (CharAt var14 997)))
(assert (= "s" (CharAt var53 997)))
(assert (= "x" (CharAt var39 414)))
(assert (= "P" (CharAt var4 658)))
(assert (= "N" (CharAt var40 289)))
(assert (= "X" (CharAt var48 792)))
(assert (= "|" (CharAt var17 590)))
(assert (= "W" (CharAt var38 816)))
(assert (= "l" (CharAt var2 372)))
(assert (= "A" (CharAt var23 609)))
(assert (= "C" (CharAt var18 452)))
(assert (= "G" (CharAt var53 353)))
(assert (= "<" (CharAt var41 603)))
(assert (= ";" (CharAt var33 832)))
(assert (= "/" (CharAt var52 386)))
(assert (= "G" (CharAt var5 797)))
(assert (= "K" (CharAt var5 1000)))
(assert (= "`" (CharAt var17 189)))
(assert (= "4" (CharAt var50 535)))
(assert (= ")" (CharAt var20 164)))
(assert (= "E" (CharAt var23 843)))
(assert (= "*" (CharAt var24 239)))
(assert (= "M" (CharAt var51 687)))
(assert (= "S" (CharAt var55 210)))
(assert (= "@" (CharAt var14 345)))
(assert (= "_" (CharAt var24 833)))
(assert (= "R" (CharAt var20 641)))
(assert (= "K" (CharAt var35 252)))
(assert (= "I" (CharAt var43 537)))
(assert (= "E" (CharAt var23 50)))
(assert (= "W" (CharAt var35 124)))
(assert (= "[" (CharAt var53 826)))
(assert (= "n" (CharAt var33 671)))
(assert (= "5" (CharAt var27 998)))
(assert (= "5" (CharAt var49 582)))
(assert (= "c" (CharAt var5 833)))
(assert (= "`" (CharAt var37 176)))
(assert (= "." (CharAt var23 709)))
(assert (= "f" (CharAt var12 771)))
(assert (= "s" (CharAt var33 295)))
(assert (= "g" (CharAt var50 362)))
(assert (= "=" (CharAt var18 862)))
(assert (= "(" (CharAt var2 470)))
(assert (= ":" (CharAt var8 888)))
(assert (= ">" (CharAt var2 244)))
(assert (= "{" (CharAt var54 646)))
(assert (= "7" (CharAt var26 686)))
(assert (= "*" (CharAt var55 53)))
(assert (= "U" (CharAt var32 897)))
(assert (= "\\" (CharAt var11 314)))
(assert (= "2" (CharAt var5 951)))
(assert (= "E" (CharAt var18 285)))
(assert (= "n" (CharAt var35 467)))
(assert (= "m" (CharAt var14 981)))
(assert (= "B" (CharAt var16 373)))
(assert (= "C" (CharAt var55 80)))
(assert (= "}" (CharAt var14 762)))
(assert (= "," (CharAt var46 306)))
(assert (= "b" (CharAt var1 168)))
(assert (= "P" (CharAt var52 51)))
(assert (= "-" (CharAt var14 354)))
(assert (= "u" (CharAt var29 462)))
(assert (= "U" (CharAt var7 356)))
(assert (= "[" (CharAt var20 408)))
(assert (= "o" (CharAt var3 480)))
(assert (= "{" (CharAt var23 812)))
(assert (= "7" (CharAt var43 674)))
(assert (= "J" (CharAt var8 192)))
(assert (= "@" (CharAt var51 761)))
(assert (= "f" (CharAt var55 28)))
(assert (= ";" (CharAt var44 492)))
(assert (= "/" (CharAt var24 747)))
(assert (= "W" (CharAt var58 612)))
(assert (= "p" (CharAt var37 435)))
(assert (= "m" (CharAt var57 537)))
(assert (= "J" (CharAt var19 864)))
(assert (= "#" (CharAt var4 927)))
(assert (= "i" (CharAt var38 221)))
(assert (= "K" (CharAt var58 350)))
(assert (= "I" (CharAt var48 898)))
(assert (= "c" (CharAt var4 747)))
(assert (= "b" (CharAt var15 21)))
(assert (= "E" (CharAt var12 164)))
(assert (= "b" (CharAt var48 894)))
(assert (= "y" (CharAt var30 334)))
(assert (= "%" (CharAt var20 198)))
(assert (= "/" (CharAt var51 567)))
(assert (= "F" (CharAt var47 531)))
(assert (= "D" (CharAt var36 42)))
(assert (= "@" (CharAt var43 755)))
(assert (= "c" (CharAt var37 644)))
(assert (= "9" (CharAt var58 815)))
(assert (= "B" (CharAt var39 619)))
(assert (= "^" (CharAt var42 986)))
(assert (= "P" (CharAt var4 860)))
(assert (= "T" (CharAt var54 44)))
(assert (= "," (CharAt var10 465)))
(assert (= "d" (CharAt var44 642)))
(assert (= "[" (CharAt var27 703)))
(assert (= "U" (CharAt var20 185)))
(assert (= "A" (CharAt var44 622)))
(assert (= "f" (CharAt var48 709)))
(assert (= "Q" (CharAt var39 639)))
(assert (= "w" (CharAt var34 94)))
(assert (= "^" (CharAt var50 341)))
(assert (= "e" (CharAt var0 220)))
(assert (= "b" (CharAt var23 248)))
(assert (= "a" (CharAt var18 211)))
(assert (= "&" (CharAt var2 206)))
(assert (= "3" (CharAt var46 821)))
(assert (= "1" (CharAt var60 769)))
(assert (= "U" (CharAt var3 375)))
(assert (= "k" (CharAt var35 267)))
(assert (= "#" (CharAt var60 532)))
(assert (= "F" (CharAt var25 26)))
(assert (= ")" (CharAt var39 302)))
(assert (= "," (CharAt var58 760)))
(assert (= ")" (CharAt var36 20)))
(assert (= "2" (CharAt var49 563)))
(assert (= "g" (CharAt var48 193)))
(assert (= "[" (CharAt var16 917)))
(assert (= "c" (CharAt var44 469)))
(assert (= "w" (CharAt var31 36)))
(assert (= "b" (CharAt var26 248)))
(assert (= "9" (CharAt var37 66)))
(assert (= "L" (CharAt var48 469)))
(assert (= "R" (CharAt var37 770)))
(assert (= "y" (CharAt var12 701)))
(assert (= "F" (CharAt var13 264)))
(assert (= "m" (CharAt var33 511)))
(assert (= "j" (CharAt var53 904)))
(assert (= "f" (CharAt var8 934)))
(assert (= "a" (CharAt var42 558)))
(assert (= "T" (CharAt var27 21)))
(assert (= "2" (CharAt var22 391)))
(assert (= "k" (CharAt var38 640)))
(assert (= "$" (CharAt var28 195)))
(assert (= "y" (CharAt var18 12)))
(assert (= "D" (CharAt var38 543)))
(assert (= "u" (CharAt var56 977)))
(assert (= "8" (CharAt var43 281)))
(assert (= "-" (CharAt var47 917)))
(assert (= "X" (CharAt var2 263)))
(assert (= ":" (CharAt var14 3)))
(assert (= "K" (CharAt var57 446)))
(assert (= "E" (CharAt var6 383)))
(assert (= "<" (CharAt var42 393)))
(assert (= "w" (CharAt var50 562)))
(assert (= "K" (CharAt var1 195)))
(assert (= "7" (CharAt var54 123)))
(assert (= "-" (CharAt var43 111)))
(assert (= "h" (CharAt var7 647)))
(assert (= "z" (CharAt var51 336)))
(assert (= "e" (CharAt var6 474)))
(assert (= "i" (CharAt var23 440)))
(assert (= "2" (CharAt var36 803)))
(assert (= "{" (CharAt var25 11)))
(assert (= ")" (CharAt var3 46)))
(assert (= "." (CharAt var44 950)))
(assert (= "@" (CharAt var40 517)))
(assert (= "|" (CharAt var39 239)))
(assert (= "o" (CharAt var9 303)))
(assert (= "#" (CharAt var30 676)))
(assert (= "N" (CharAt var50 303)))
(assert (= "?" (CharAt var41 652)))
(assert (= "}" (CharAt var46 132)))
(assert (= "b" (CharAt var36 566)))
(assert (= "$" (CharAt var54 326)))
(assert (= "R" (CharAt var2 929)))
(assert (= "'" (CharAt var24 734)))
(assert (= "T" (CharAt var29 255)))
(assert (= "U" (CharAt var7 187)))
(assert (= "\"" (CharAt var51 752)))
(assert (= "S" (CharAt var29 940)))
(assert (= "M" (CharAt var49 156)))
(assert (= "D" (CharAt var52 270)))
(assert (= "f" (CharAt var1 16)))
(assert (= "-" (CharAt var8 178)))
(assert (= "Q" (CharAt var15 70)))
(assert (= "f" (CharAt var43 333)))
(assert (= "," (CharAt var1 79)))
(assert (= "/" (CharAt var27 32)))
(assert (= "z" (CharAt var12 37)))
(assert (= "G" (CharAt var13 731)))
(assert (= ")" (CharAt var48 244)))
(assert (= "U" (CharAt var34 348)))
(assert (= "A" (CharAt var18 195)))
(assert (= "`" (CharAt var13 16)))
(assert (= "x" (CharAt var17 36)))
(assert (= "e" (CharAt var56 8)))
(assert (= "b" (CharAt var4 886)))
(assert (= "L" (CharAt var52 535)))
(assert (= "B" (CharAt var26 543)))
(assert (= "<" (CharAt var23 364)))
(assert (= "T" (CharAt var20 355)))
(assert (= "\\" (CharAt var41 31)))
(assert (= "n" (CharAt var5 368)))
(assert (= "7" (CharAt var44 348)))
(assert (= "$" (CharAt var32 900)))
(assert (= "S" (CharAt var4 707)))
(assert (= "^" (CharAt var52 736)))
(assert (= "!" (CharAt var26 747)))
(assert (= "8" (CharAt var26 606)))
(assert (= "H" (CharAt var48 919)))
(assert (= "m" (CharAt var20 823)))
(assert (= "u" (CharAt var34 518)))
(assert (= "<" (CharAt var58 125)))
(assert (= "}" (CharAt var11 326)))
(assert (= "A" (CharAt var46 370)))
(assert (= "e" (CharAt var14 733)))
(assert (= "/" (CharAt var57 246)))
(assert (= "V" (CharAt var50 1)))
(assert (= "c" (CharAt var51 412)))
(assert (= "l" (CharAt var46 571)))
(assert (= "!" (CharAt var53 173)))
(assert (= "U" (CharAt var3 638)))
(assert (= "t" (CharAt var53 589)))
(assert (= "P" (CharAt var9 284)))
(assert (= ">" (CharAt var22 758)))
(assert (= "F" (CharAt var28 939)))
(assert (= "j" (CharAt var57 971)))
(assert (= "H" (CharAt var10 242)))
(assert (= "u" (CharAt var26 263)))
(assert (= "]" (CharAt var25 185)))
(assert (= "7" (CharAt var34 855)))
(assert (= "z" (CharAt var1 773)))
(assert (= "L" (CharAt var44 829)))
(assert (= "*" (CharAt var38 792)))
(assert (= "g" (CharAt var0 935)))
(assert (= "/" (CharAt var49 842)))
(assert (= "a" (CharAt var50 980)))
(assert (= "v" (CharAt var35 605)))
(assert (= "d" (CharAt var27 650)))
(assert (= "M" (CharAt var45 57)))
(assert (= "1" (CharAt var18 607)))
(assert (= "9" (CharAt var28 843)))
(assert (= "J" (CharAt var9 573)))
(assert (= ")" (CharAt var46 468)))
(assert (= "n" (CharAt var8 475)))
(assert (= "x" (CharAt var60 824)))
(assert (= "?" (CharAt var13 868)))
(assert (= "g" (CharAt var54 730)))
(assert (= "z" (CharAt var40 165)))
(assert (= "~" (CharAt var44 105)))
(assert (= "d" (CharAt var16 402)))
(assert (= "<" (CharAt var22 102)))
(assert (= "P" (CharAt var18 206)))
(assert (= "$" (CharAt var2 108)))
(assert (= "J" (CharAt var47 678)))
(assert (= "c" (CharAt var15 490)))
(assert (= "x" (CharAt var60 836)))
(assert (= "_" (CharAt var38 630)))
(assert (= "}" (CharAt var23 821)))
(assert (= "w" (CharAt var10 203)))
(assert (= ";" (CharAt var34 981)))
(assert (= "I" (CharAt var49 915)))
(assert (= ";" (CharAt var49 801)))
(assert (= "|" (CharAt var12 230)))
(assert (= "]" (CharAt var57 836)))
(assert (= "i" (CharAt var2 945)))
(assert (= "L" (CharAt var28 199)))
(assert (= "," (CharAt var38 59)))
(assert (= "a" (CharAt var10 685)))
(assert (= "H" (CharAt var13 397)))
(assert (= "." (CharAt var59 880)))
(assert (= "A" (CharAt var22 973)))
(assert (= "t" (CharAt var37 811)))
(assert (= "l" (CharAt var45 6)))
(assert (= ">" (CharAt var27 359)))
(assert (= "w" (CharAt var0 421)))
(assert (= "t" (CharAt var10 793)))
(assert (= "~" (CharAt var3 470)))
(assert (= "W" (CharAt var14 790)))
(assert (= "3" (CharAt var40 108)))
(assert (= "T" (CharAt var30 872)))
(assert (= "5" (CharAt var50 63)))
(assert (= "L" (CharAt var59 959)))
(assert (= "l" (CharAt var27 201)))
(assert (= "9" (CharAt var11 105)))
(assert (= "Z" (CharAt var1 734)))
(assert (= "_" (CharAt var13 418)))
(assert (= "C" (CharAt var35 348)))
(assert (= "$" (CharAt var5 706)))
(assert (= "w" (CharAt var11 442)))
(assert (= "K" (CharAt var23 937)))
(assert (= "J" (CharAt var48 639)))
(assert (= "r" (CharAt var9 161)))
(assert (= "u" (CharAt var0 762)))
(assert (= "R" (CharAt var14 360)))
(assert (= "M" (CharAt var0 54)))
(assert (= "s" (CharAt var31 345)))
(assert (= "u" (CharAt var58 134)))
(assert (= ":" (CharAt var55 21)))
(assert (= "," (CharAt var18 514)))
(assert (= "H" (CharAt var34 243)))
(assert (= "h" (CharAt var48 512)))
(assert (= "c" (CharAt var15 986)))
(assert (= "/" (CharAt var54 613)))
(assert (= "," (CharAt var57 276)))
(assert (= "h" (CharAt var52 253)))
(assert (= "6" (CharAt var54 736)))
(assert (= "&" (CharAt var28 461)))
(assert (= ")" (CharAt var19 153)))
(assert (= "<" (CharAt var47 358)))
(assert (= "w" (CharAt var36 556)))
(assert (= "o" (CharAt var34 566)))
(assert (= "z" (CharAt var57 310)))
(assert (= "." (CharAt var48 778)))
(assert (= "}" (CharAt var43 146)))
(assert (= "s" (CharAt var28 110)))
(assert (= "B" (CharAt var40 545)))
(assert (= "Q" (CharAt var45 637)))
(assert (= "o" (CharAt var43 634)))
(assert (= "y" (CharAt var24 74)))
(assert (= "4" (CharAt var23 700)))
(assert (= "K" (CharAt var8 726)))
(assert (= "1" (CharAt var38 453)))
(assert (= "C" (CharAt var39 250)))
(assert (= "]" (CharAt var44 296)))
(assert (= "u" (CharAt var30 323)))
(assert (= "F" (CharAt var19 931)))
(assert (= "e" (CharAt var41 923)))
(assert (= "u" (CharAt var16 35)))
(assert (= "m" (CharAt var55 913)))
(assert (= "h" (CharAt var29 361)))
(assert (= ")" (CharAt var2 2)))
(assert (= "-" (CharAt var19 492)))
(assert (= ";" (CharAt var13 661)))
(assert (= "t" (CharAt var36 905)))
(assert (= "\"" (CharAt var43 854)))
(assert (= "/" (CharAt var22 454)))
(assert (= "c" (CharAt var43 937)))
(assert (= "j" (CharAt var60 115)))
(assert (= "z" (CharAt var49 988)))
(assert (= "P" (CharAt var45 999)))
(assert (= "s" (CharAt var27 314)))
(assert (= "`" (CharAt var8 44)))
(assert (= "h" (CharAt var18 39)))
(assert (= "K" (CharAt var10 123)))
(assert (= "x" (CharAt var25 964)))
(assert (= "`" (CharAt var17 506)))
(assert (= "p" (CharAt var20 183)))
(assert (= "p" (CharAt var28 820)))
(assert (= "s" (CharAt var60 421)))
(assert (= "+" (CharAt var30 300)))
(assert (= "&" (CharAt var37 805)))
(assert (= "o" (CharAt var34 185)))
(assert (= "i" (CharAt var53 749)))
(assert (= "'" (CharAt var1 437)))
(assert (= "w" (CharAt var8 438)))
(assert (= "E" (CharAt var2 253)))
(assert (= "X" (CharAt var48 676)))
(assert (= "0" (CharAt var9 960)))
(assert (= "{" (CharAt var60 873)))
(assert (= "B" (CharAt var42 983)))
(assert (= "." (CharAt var29 316)))
(assert (= "P" (CharAt var27 523)))
(assert (= "," (CharAt var38 371)))
(assert (= "," (CharAt var27 534)))
(assert (= "E" (CharAt var18 390)))
(assert (= "@" (CharAt var40 671)))
(assert (= "x" (CharAt var43 782)))
(assert (= "]" (CharAt var41 869)))
(assert (= "?" (CharAt var38 250)))
(assert (= "L" (CharAt var39 650)))
(assert (= "|" (CharAt var25 615)))
(assert (= "v" (CharAt var15 951)))
(assert (= "." (CharAt var42 710)))
(assert (= "R" (CharAt var17 435)))
(assert (= "/" (CharAt var31 979)))
(assert (= "I" (CharAt var23 921)))
(assert (= "V" (CharAt var51 194)))
(assert (= "<" (CharAt var0 840)))
(assert (= "6" (CharAt var46 466)))
(assert (= "s" (CharAt var15 77)))
(assert (= "r" (CharAt var5 820)))
(assert (= "+" (CharAt var43 602)))
(assert (= "U" (CharAt var6 733)))
(assert (= "!" (CharAt var29 810)))
(assert (= "^" (CharAt var45 638)))
(assert (= "B" (CharAt var8 84)))
(assert (= "y" (CharAt var10 80)))
(assert (= "r" (CharAt var41 572)))
(assert (= "O" (CharAt var53 453)))
(assert (= "D" (CharAt var34 759)))
(assert (= "n" (CharAt var6 583)))
(assert (= "p" (CharAt var17 67)))
(assert (= ")" (CharAt var45 679)))
(assert (= "x" (CharAt var14 990)))
(assert (= "P" (CharAt var50 995)))
(assert (= ">" (CharAt var22 316)))
(assert (= "@" (CharAt var12 953)))
(assert (= "R" (CharAt var19 828)))
(assert (= "!" (CharAt var26 510)))
(assert (= "J" (CharAt var7 65)))
(assert (= "P" (CharAt var18 891)))
(assert (= "-" (CharAt var54 808)))
(assert (= "p" (CharAt var30 589)))
(assert (= "s" (CharAt var9 464)))
(assert (= "^" (CharAt var48 628)))
(assert (= "`" (CharAt var39 624)))
(check-sat)